38541.13 0
0 5 573 460 463 462 461 459 458 457 456 455 454 439 443 444 445 442 446 447 448 449 450 441 440 453 452 499 500 501 498 497 496 464 465 466 467 468 469 470 471 472 474 473 493 492 491 490 489 488 534 535 487 486 485 484 536 538 540 539 537 483 481 482 475 476 480 479 477 478 548 549 560 561 562 563 564 565 566 567 568 20 19 569 570 571 572 6 7 8 17 18 9 10 11 16 15 14 13 12 23 22 21 24 25 26 27 28 29 31 30 32 36 37 38 35 33 34 558 559 550 551 101 102 100 99 98 97 96 95 118 119 120 121 122 123 71 72 73 74 75 76 77 78 88 89 94 93 92 90 87 86 85 84 51 52 50 91 555 554 553 552 556 557 41 40 39 42 43 44 45 46 47 48 49 54 53 55 56 83 82 57 58 59 81 80 79 61 60 63 62 64 65 66 67 68 70 69 124 125 126 127 128 129 130 131 132 133 134 135 136 137 138 139 140 141 151 150 149 152 148 147 146 142 143 144 145 158 157 159 160 161 162 168 163 167 166 164 154 155 156 153 165 203 204 202 201 200 199 198 205 206 207 208 209 210 211 212 213 214 215 217 216 246 238 239 240 237 236 235 234 233 232 223 224 222 221 220 218 219 225 226 189 190 191 192 193 194 195 196 197 184 185 183 182 179 181 180 169 171 170 172 110 111 112 113 114 115 116 117 106 105 104 103 547 546 545 544 543 541 542 107 109 108 173 174 175 176 177 178 187 188 186 227 228 229 230 231 533 532 531 530 529 528 527 512 511 510 509 513 514 515 516 517 520 521 522 523 526 525 524 494 495 518 519 502 503 504 505 506 507 508 302 301 241 242 243 244 245 247 248 249 250 251 252 254 253 255 256 257 300 299 258 259 260 261 262 263 264 265 266 298 267 270 269 268 271 272 273 274 275 290 289 288 276 277 278 279 282 281 280 287 286 285 284 283 334 335 336 337 338 339 333 332 340 341 330 331 291 292 293 294 295 296 297 321 320 319 317 318 305 306 304 303 307 308 309 310 311 451 312 313 316 314 315 374 375 376 377 378 379 380 381 390 389 388 391 392 393 394 395 396 371 372 373 322 323 324 325 326 327 328 329 366 342 343 344 345 346 364 365 367 368 369 370 398 397 407 408 406 399 400 401 402 403 404 405 409 384 383 385 387 386 382 425 424 423 422 419 417 418 410 411 412 356 355 353 354 357 358 359 360 361 363 362 347 348 349 350 351 352 413 414 415 416 420 421 426 427 428 429 431 430 432 433 434 435 436 438 437 3 2 1 4